\ENCODING=ISO-8859-1
\Problem name: ilog.cplex

Maximize
 obj: 734 x(0)#0 + 1021 x(1)#1 + 476 x(2)#2 + 707 x(3)#3 + 603 x(4)#4
      + 919 x(5)#5 + 741 x(6)#6 + 757 x(7)#7 + 846 x(8)#8 + 833 x(9)#9
      + 708 x(10)#10 + 1052 x(11)#11 + 853 x(12)#12 + 766 x(13)#13
      + 993 x(14)#14 + 819 x(15)#15 + 506 x(16)#16 + 881 x(17)#17
      + 593 x(18)#18 + 471 x(19)#19 + 720 x(20)#20 + 913 x(21)#21
      + 576 x(22)#22 + 701 x(23)#23 + 553 x(24)#24 + 900 x(25)#25
      + 811 x(26)#26 + 821 x(27)#27 + 791 x(28)#28 + 752 x(29)#29
      + 692 x(30)#30 + 495 x(31)#31 + 613 x(32)#32 + 929 x(33)#33
      + 971 x(34)#34 + 1082 x(35)#35 + 809 x(36)#36 + 972 x(37)#37
      + 1015 x(38)#38 + 870 x(39)#39 + 784 x(40)#40 + 424 x(41)#41
      + 886 x(42)#42 + 785 x(43)#43 + 714 x(44)#44 + 761 x(45)#45
      + 881 x(46)#46 + 736 x(47)#47 + 875 x(48)#48 + 571 x(49)#49
      + 612 x(50)#50 + 521 x(51)#51 + 912 x(52)#52 + 925 x(53)#53
      + 582 x(54)#54 + 945 x(55)#55 + 526 x(56)#56 + 876 x(57)#57
      + 856 x(58)#58 + 646 x(59)#59 + 875 x(60)#60 + 787 x(61)#61
      + 786 x(62)#62 + 839 x(63)#63 + 994 x(64)#64 + 575 x(65)#65
      + 588 x(66)#66 + 610 x(67)#67 + 499 x(68)#68 + 474 x(69)#69
      + 1017 x(70)#70 + 652 x(71)#71 + 927 x(72)#72 + 782 x(73)#73
      + 955 x(74)#74 + 519 x(75)#75 + 840 x(76)#76 + 636 x(77)#77
      + 930 x(78)#78 + 892 x(79)#79 + 784 x(80)#80 + 717 x(81)#81
      + 410 x(82)#82 + 913 x(83)#83 + 739 x(84)#84 + 994 x(85)#85
      + 541 x(86)#86 + 679 x(87)#87 + 721 x(88)#88 + 945 x(89)#89
      + 923 x(90)#90 + 798 x(91)#91 + 710 x(92)#92 + 846 x(93)#93
      + 664 x(94)#94 + 842 x(95)#95 + 954 x(96)#96 + 492 x(97)#97
      + 813 x(98)#98 + 346 x(99)#99
Subject To
 c1:  784 x(0)#0 + 789 x(1)#1 + 218 x(2)#2 + 320 x(3)#3 + 117 x(4)#4
      + 224 x(5)#5 + 410 x(6)#6 + 738 x(7)#7 + 248 x(8)#8 + 482 x(9)#9
      + 159 x(10)#10 + 545 x(11)#11 + 817 x(12)#12 + 745 x(13)#13
      + 525 x(14)#14 + 937 x(15)#15 + 110 x(16)#16 + 246 x(17)#17
      + 168 x(18)#18 + 150 x(19)#19 + 316 x(20)#20 + 774 x(21)#21
      + 455 x(22)#22 + 54 x(23)#23 + 334 x(24)#24 + 513 x(25)#25 + 24 x(26)#26
      + 209 x(27)#27 + 174 x(28)#28 + 348 x(29)#29 + 866 x(30)#30
      + 857 x(31)#31 + 62 x(32)#32 + 367 x(33)#33 + 621 x(34)#34 + 641 x(35)#35
      + 268 x(36)#36 + 710 x(37)#37 + 530 x(38)#38 + 295 x(39)#39
      + 961 x(40)#40 + 192 x(41)#41 + 834 x(42)#42 + 697 x(43)#43 + 57 x(44)#44
      + 441 x(45)#45 + 496 x(46)#46 + 858 x(47)#47 + 944 x(48)#48
      + 384 x(49)#49 + 829 x(50)#50 + 513 x(51)#51 + 665 x(52)#52
      + 432 x(53)#53 + 990 x(54)#54 + 621 x(55)#55 + 709 x(56)#56
      + 342 x(57)#57 + 40 x(58)#58 + 330 x(59)#59 + 885 x(60)#60 + 751 x(61)#61
      + 95 x(62)#62 + 650 x(63)#63 + 953 x(64)#64 + 687 x(65)#65 + 361 x(66)#66
      + 933 x(67)#67 + 612 x(68)#68 + 889 x(69)#69 + 150 x(70)#70
      + 694 x(71)#71 + 109 x(72)#72 + 130 x(73)#73 + 860 x(74)#74
      + 211 x(75)#75 + 950 x(76)#76 + 972 x(77)#77 + 612 x(78)#78
      + 858 x(79)#79 + 834 x(80)#80 + 499 x(81)#81 + 542 x(82)#82
      + 795 x(83)#83 + 386 x(84)#84 + 578 x(85)#85 + 197 x(86)#86
      + 266 x(87)#87 + 932 x(88)#88 + 811 x(89)#89 + 106 x(90)#90
      + 969 x(91)#91 + 7 x(92)#92 + 64 x(93)#93 + 82 x(94)#94 + 152 x(95)#95
      + 801 x(96)#96 + 12 x(97)#97 + 590 x(98)#98 + 948 x(99)#99 <= 12605
 c2:  716 x(0)#0 + 816 x(1)#1 + 854 x(2)#2 + 631 x(3)#3 + 708 x(4)#4
      + 23 x(5)#5 + 165 x(6)#6 + 293 x(7)#7 + 490 x(8)#8 + 457 x(9)#9
      + 450 x(10)#10 + 458 x(11)#11 + 814 x(12)#12 + 56 x(13)#13 + 284 x(14)#14
      + 237 x(15)#15 + 7 x(16)#16 + 276 x(17)#17 + 292 x(18)#18 + 213 x(19)#19
      + 18 x(20)#20 + 767 x(21)#21 + 823 x(22)#22 + 437 x(23)#23 + 875 x(24)#24
      + 263 x(25)#25 + 490 x(26)#26 + 329 x(27)#27 + 718 x(28)#28
      + 775 x(29)#29 + 108 x(30)#30 + 109 x(31)#31 + 764 x(32)#32 + 28 x(33)#33
      + 489 x(34)#34 + 858 x(35)#35 + 543 x(36)#36 + 1000 x(37)#37
      + 788 x(38)#38 + 592 x(39)#39 + 124 x(40)#40 + 337 x(41)#41
      + 922 x(42)#42 + 75 x(43)#43 + 915 x(44)#44 + 222 x(45)#45 + 911 x(46)#46
      + 285 x(47)#47 + 976 x(48)#48 + 839 x(49)#49 + 754 x(50)#50 + 46 x(51)#51
      + 55 x(52)#52 + 386 x(53)#53 + 439 x(54)#54 + 790 x(55)#55 + 513 x(56)#56
      + 717 x(57)#57 + 943 x(58)#58 + 510 x(59)#59 + 193 x(60)#60
      + 343 x(61)#61 + 826 x(62)#62 + 890 x(63)#63 + 469 x(64)#64
      + 380 x(65)#65 + 936 x(66)#66 + 23 x(67)#67 + 772 x(68)#68 + 124 x(69)#69
      + 650 x(70)#70 + 37 x(71)#71 + 452 x(72)#72 + 299 x(73)#73 + 668 x(74)#74
      + 715 x(75)#75 + 9 x(76)#76 + 566 x(77)#77 + 159 x(78)#78 + 132 x(79)#79
      + 429 x(80)#80 + 130 x(81)#81 + 559 x(82)#82 + 709 x(83)#83
      + 507 x(84)#84 + 853 x(85)#85 + 545 x(86)#86 + 523 x(87)#87
      + 169 x(88)#88 + 969 x(89)#89 + 563 x(90)#90 + 615 x(91)#91 + 16 x(92)#92
      + 484 x(93)#93 + 73 x(94)#94 + 434 x(95)#95 + 693 x(96)#96 + 281 x(97)#97
      + 35 x(98)#98 + 598 x(99)#99 <= 11900
 c3:  93 x(0)#0 + 860 x(1)#1 + 551 x(2)#2 + 994 x(3)#3 + 299 x(4)#4
      + 583 x(5)#5 + 591 x(6)#6 + 979 x(7)#7 + 809 x(8)#8 + 287 x(9)#9
      + 411 x(10)#10 + 410 x(11)#11 + 959 x(12)#12 + 102 x(13)#13
      + 717 x(14)#14 + 202 x(15)#15 + 838 x(16)#16 + 447 x(17)#17
      + 919 x(18)#18 + 646 x(19)#19 + 476 x(20)#20 + 724 x(21)#21 + 36 x(22)#22
      + 925 x(23)#23 + 285 x(24)#24 + 135 x(25)#25 + 520 x(26)#26
      + 396 x(27)#27 + 222 x(28)#28 + 154 x(29)#29 + 425 x(30)#30
      + 183 x(31)#31 + 577 x(32)#32 + 839 x(33)#33 + 707 x(34)#34
      + 808 x(35)#35 + 711 x(36)#36 + 982 x(37)#37 + 324 x(38)#38
      + 291 x(39)#39 + 329 x(40)#40 + 58 x(41)#41 + 932 x(42)#42 + 263 x(43)#43
      + 613 x(44)#44 + 418 x(45)#45 + 730 x(46)#46 + 957 x(47)#47
      + 889 x(48)#48 + 617 x(49)#49 + 678 x(50)#50 + 606 x(51)#51 + 56 x(52)#52
      + 93 x(53)#53 + 11 x(54)#54 + 310 x(55)#55 + 168 x(56)#56 + 631 x(57)#57
      + 257 x(58)#58 + 642 x(59)#59 + 63 x(60)#60 + 207 x(61)#61 + 475 x(62)#62
      + 202 x(63)#63 + 528 x(64)#64 + 861 x(65)#65 + 445 x(66)#66
      + 335 x(67)#67 + 354 x(68)#68 + 71 x(69)#69 + 299 x(70)#70 + 739 x(71)#71
      + 891 x(72)#72 + 414 x(73)#73 + 98 x(74)#74 + 275 x(75)#75 + 591 x(76)#76
      + 831 x(77)#77 + 831 x(78)#78 + 926 x(79)#79 + 35 x(80)#80 + 514 x(81)#81
      + 361 x(82)#82 + 362 x(83)#83 + 991 x(84)#84 + 348 x(85)#85
      + 632 x(86)#86 + 771 x(87)#87 + 439 x(88)#88 + 13 x(89)#89 + 482 x(90)#90
      + 10 x(91)#91 + 448 x(92)#92 + 969 x(93)#93 + 585 x(94)#94 + 439 x(95)#95
      + 395 x(96)#96 + 127 x(97)#97 + 206 x(98)#98 + 103 x(99)#99 <= 12085
 c4:  187 x(0)#0 + 979 x(1)#1 + 675 x(2)#2 + 467 x(3)#3 + 422 x(4)#4
      + 827 x(5)#5 + 700 x(6)#6 + 310 x(7)#7 + 317 x(8)#8 + 876 x(9)#9
      + 820 x(10)#10 + 956 x(11)#11 + 724 x(12)#12 + 923 x(13)#13
      + 846 x(14)#14 + 851 x(15)#15 + 512 x(16)#16 + 474 x(17)#17
      + 610 x(18)#18 + 132 x(19)#19 + 411 x(20)#20 + 184 x(21)#21
      + 275 x(22)#22 + 86 x(23)#23 + 762 x(24)#24 + 983 x(25)#25 + 882 x(26)#26
      + 38 x(27)#27 + 160 x(28)#28 + 772 x(29)#29 + 613 x(30)#30 + 919 x(31)#31
      + 18 x(32)#32 + 81 x(33)#33 + 645 x(34)#34 + 979 x(35)#35 + 154 x(36)#36
      + 938 x(37)#37 + 643 x(38)#38 + 672 x(39)#39 + 208 x(40)#40
      + 106 x(41)#41 + 456 x(42)#42 + 489 x(43)#43 + 244 x(44)#44
      + 795 x(45)#45 + 430 x(46)#46 + 682 x(47)#47 + 844 x(48)#48
      + 775 x(49)#49 + 850 x(50)#50 + 577 x(51)#51 + 701 x(52)#52
      + 985 x(53)#53 + 902 x(54)#54 + 660 x(55)#55 + 75 x(56)#56 + 578 x(57)#57
      + 527 x(58)#58 + 502 x(59)#59 + 881 x(60)#60 + 565 x(61)#61
      + 100 x(62)#62 + 801 x(63)#63 + 416 x(64)#64 + 74 x(65)#65 + 129 x(66)#66
      + 907 x(67)#67 + 855 x(68)#68 + 555 x(69)#69 + 942 x(70)#70
      + 873 x(71)#71 + 526 x(72)#72 + 392 x(73)#73 + 532 x(74)#74
      + 324 x(75)#75 + 955 x(76)#76 + 250 x(77)#77 + 289 x(78)#78
      + 509 x(79)#79 + 361 x(80)#80 + 337 x(81)#81 + 55 x(82)#82 + 881 x(83)#83
      + 532 x(84)#84 + 423 x(85)#85 + 665 x(86)#86 + 501 x(87)#87
      + 453 x(88)#88 + 633 x(89)#89 + 944 x(90)#90 + 161 x(91)#91
      + 453 x(92)#92 + 977 x(93)#93 + 48 x(94)#94 + 204 x(95)#95 + 867 x(96)#96
      + 205 x(97)#97 + 847 x(98)#98 + 171 x(99)#99 <= 13701
 c5:  438 x(0)#0 + 348 x(1)#1 + 799 x(2)#2 + 704 x(3)#3 + 65 x(4)#4
      + 622 x(5)#5 + 567 x(6)#6 + 84 x(7)#7 + 754 x(8)#8 + 577 x(9)#9
      + 942 x(10)#10 + 661 x(11)#11 + 897 x(12)#12 + 267 x(13)#13
      + 427 x(14)#14 + 182 x(15)#15 + 432 x(16)#16 + 674 x(17)#17
      + 356 x(18)#18 + 353 x(19)#19 + 111 x(20)#20 + 581 x(21)#21
      + 285 x(22)#22 + 701 x(23)#23 + 76 x(24)#24 + 881 x(25)#25 + 956 x(26)#26
      + 864 x(27)#27 + 317 x(28)#28 + 970 x(29)#29 + 478 x(30)#30
      + 123 x(31)#31 + 814 x(32)#32 + 1000 x(33)#33 + 988 x(34)#34
      + 399 x(35)#35 + 768 x(36)#36 + 5 x(37)#37 + 883 x(38)#38 + 291 x(39)#39
      + 375 x(40)#40 + 463 x(41)#41 + 862 x(42)#42 + 746 x(43)#43
      + 274 x(44)#44 + 754 x(45)#45 + 428 x(46)#46 + 975 x(47)#47 + x(48)#48
      + 83 x(49)#49 + 41 x(50)#50 + 473 x(51)#51 + 257 x(52)#52 + 101 x(53)#53
      + 501 x(54)#54 + 940 x(55)#55 + 23 x(56)#56 + 780 x(57)#57 + 430 x(58)#58
      + 724 x(59)#59 + 629 x(60)#60 + 954 x(61)#61 + 503 x(62)#62
      + 402 x(63)#63 + 734 x(64)#64 + 748 x(65)#65 + 238 x(66)#66
      + 165 x(67)#67 + 35 x(68)#68 + 228 x(69)#69 + 758 x(70)#70 + 751 x(71)#71
      + 396 x(72)#72 + 533 x(73)#73 + 329 x(74)#74 + 277 x(75)#75
      + 934 x(76)#76 + 473 x(77)#77 + 250 x(78)#78 + 115 x(79)#79
      + 680 x(80)#80 + 858 x(81)#81 + 270 x(82)#82 + 787 x(83)#83
      + 483 x(84)#84 + 961 x(85)#85 + 505 x(86)#86 + 748 x(87)#87
      + 636 x(88)#88 + 882 x(89)#89 + 495 x(90)#90 + 706 x(91)#91
      + 427 x(92)#92 + 221 x(93)#93 + 361 x(94)#94 + 546 x(95)#95
      + 560 x(96)#96 + 842 x(97)#97 + 84 x(98)#98 + 185 x(99)#99 <= 12890
 c6:  955 x(0)#0 + 68 x(1)#1 + 40 x(2)#2 + 705 x(3)#3 + 696 x(4)#4 + 810 x(5)#5
      + 806 x(6)#6 + 580 x(7)#7 + 77 x(8)#8 + 949 x(9)#9 + 887 x(10)#10
      + 516 x(11)#11 + 675 x(12)#12 + 445 x(13)#13 + 403 x(14)#14
      + 504 x(15)#15 + 606 x(16)#16 + 178 x(17)#17 + 240 x(18)#18
      + 894 x(19)#19 + 333 x(20)#20 + 796 x(21)#21 + 519 x(22)#22
      + 936 x(23)#23 + 183 x(24)#24 + 689 x(25)#25 + 61 x(26)#26 + 913 x(27)#27
      + 420 x(28)#28 + 858 x(29)#29 + 15 x(30)#30 + 157 x(31)#31 + 606 x(32)#32
      + 852 x(33)#33 + 539 x(34)#34 + 682 x(35)#35 + 460 x(36)#36
      + 719 x(37)#37 + 870 x(38)#38 + 119 x(39)#39 + 821 x(40)#40
      + 192 x(41)#41 + 57 x(42)#42 + 753 x(43)#43 + 804 x(44)#44 + 159 x(45)#45
      + 986 x(46)#46 + 504 x(47)#47 + 432 x(48)#48 + 320 x(49)#49
      + 683 x(50)#50 + 203 x(51)#51 + 601 x(52)#52 + 297 x(53)#53
      + 285 x(54)#54 + 288 x(55)#55 + 898 x(56)#56 + 529 x(57)#57
      + 571 x(58)#58 + 457 x(59)#59 + 280 x(60)#60 + 611 x(61)#61
      + 327 x(62)#62 + 447 x(63)#63 + 686 x(64)#64 + 389 x(65)#65
      + 325 x(66)#66 + 568 x(67)#67 + 710 x(68)#68 + 387 x(69)#69
      + 977 x(70)#70 + 408 x(71)#71 + 976 x(72)#72 + 530 x(73)#73
      + 512 x(74)#74 + 689 x(75)#75 + 954 x(76)#76 + 477 x(77)#77
      + 905 x(78)#78 + 178 x(79)#79 + 619 x(80)#80 + 273 x(81)#81 + 2 x(82)#82
      + 161 x(83)#83 + 232 x(84)#84 + 562 x(85)#85 + 690 x(86)#86
      + 608 x(87)#87 + 490 x(88)#88 + 690 x(89)#89 + 123 x(90)#90
      + 256 x(91)#91 + 950 x(92)#92 + 781 x(93)#93 + 267 x(94)#94
      + 704 x(95)#95 + 650 x(96)#96 + 574 x(97)#97 + 735 x(98)#98
      + 148 x(99)#99 <= 13113
 c7:  544 x(0)#0 + 574 x(1)#1 + 998 x(2)#2 + 166 x(3)#3 + 572 x(4)#4
      + 305 x(5)#5 + 966 x(6)#6 + 85 x(7)#7 + 85 x(8)#8 + 818 x(9)#9
      + 929 x(10)#10 + 896 x(11)#11 + 118 x(12)#12 + 408 x(13)#13
      + 701 x(14)#14 + 545 x(15)#15 + 90 x(16)#16 + 935 x(17)#17 + 46 x(18)#18
      + 490 x(19)#19 + 801 x(20)#20 + 678 x(21)#21 + 980 x(22)#22
      + 752 x(23)#23 + 773 x(24)#24 + 985 x(25)#25 + 661 x(26)#26 + 17 x(27)#27
      + 106 x(28)#28 + 319 x(29)#29 + 368 x(30)#30 + 494 x(31)#31
      + 361 x(32)#32 + 209 x(33)#33 + 382 x(34)#34 + 785 x(35)#35
      + 795 x(36)#36 + 184 x(37)#37 + 465 x(38)#38 + 526 x(39)#39
      + 462 x(40)#40 + 995 x(41)#41 + 9 x(42)#42 + 233 x(43)#43 + 497 x(44)#44
      + 946 x(45)#45 + 475 x(46)#46 + 27 x(47)#47 + 415 x(48)#48 + 462 x(49)#49
      + 241 x(50)#50 + 196 x(51)#51 + 894 x(52)#52 + 549 x(53)#53
      + 903 x(54)#54 + 207 x(55)#55 + 700 x(56)#56 + 238 x(57)#57
      + 282 x(58)#58 + 448 x(59)#59 + 655 x(60)#60 + 857 x(61)#61 + 89 x(62)#62
      + 574 x(63)#63 + 169 x(64)#64 + 156 x(65)#65 + 529 x(66)#66
      + 473 x(67)#67 + 52 x(68)#68 + 613 x(69)#69 + 482 x(70)#70 + 490 x(71)#71
      + 419 x(72)#72 + 226 x(73)#73 + 675 x(74)#74 + 509 x(75)#75
      + 317 x(76)#76 + 826 x(77)#77 + 589 x(78)#78 + 103 x(79)#79
      + 680 x(80)#80 + 289 x(81)#81 + 346 x(82)#82 + 39 x(83)#83 + 289 x(84)#84
      + 374 x(85)#85 + 148 x(86)#86 + 478 x(87)#87 + 222 x(88)#88
      + 725 x(89)#89 + 717 x(90)#90 + 574 x(91)#91 + 47 x(92)#92 + 899 x(93)#93
      + 490 x(94)#94 + 716 x(95)#95 + 976 x(96)#96 + 142 x(97)#97
      + 878 x(98)#98 + 341 x(99)#99 <= 12066
 c8:  208 x(0)#0 + 288 x(1)#1 + 56 x(2)#2 + 746 x(3)#3 + 134 x(4)#4
      + 431 x(5)#5 + 868 x(6)#6 + 19 x(7)#7 + 56 x(8)#8 + 837 x(9)#9
      + 499 x(10)#10 + 629 x(11)#11 + 500 x(12)#12 + 32 x(13)#13 + 314 x(14)#14
      + 771 x(15)#15 + 891 x(16)#16 + 777 x(17)#17 + 234 x(18)#18
      + 317 x(19)#19 + 664 x(20)#20 + 333 x(21)#21 + 732 x(22)#22
      + 643 x(23)#23 + 492 x(24)#24 + 14 x(25)#25 + 962 x(26)#26 + 536 x(27)#27
      + 934 x(28)#28 + 367 x(29)#29 + 358 x(30)#30 + 15 x(31)#31 + 45 x(32)#32
      + 761 x(33)#33 + 724 x(34)#34 + 726 x(35)#35 + 318 x(36)#36
      + 392 x(37)#37 + 647 x(38)#38 + 269 x(39)#39 + 420 x(40)#40
      + 557 x(41)#41 + 460 x(42)#42 + 821 x(43)#43 + 259 x(44)#44
      + 938 x(45)#45 + 672 x(46)#46 + 352 x(47)#47 + 130 x(48)#48
      + 167 x(49)#49 + 714 x(50)#50 + 532 x(51)#51 + 660 x(52)#52
      + 279 x(53)#53 + 208 x(54)#54 + 183 x(55)#55 + 653 x(56)#56 + 17 x(57)#57
      + 859 x(58)#58 + 82 x(59)#59 + 732 x(60)#60 + 664 x(61)#61 + 705 x(62)#62
      + 93 x(63)#63 + 805 x(64)#64 + 297 x(65)#65 + 750 x(66)#66 + 918 x(67)#67
      + 59 x(68)#68 + 368 x(69)#69 + 482 x(70)#70 + 273 x(71)#71 + 32 x(72)#72
      + 41 x(73)#73 + 993 x(74)#74 + 719 x(75)#75 + 949 x(76)#76 + 423 x(77)#77
      + 901 x(78)#78 + 486 x(79)#79 + 824 x(80)#80 + 735 x(81)#81
      + 100 x(82)#82 + 827 x(83)#83 + 448 x(84)#84 + 18 x(85)#85 + 905 x(86)#86
      + 930 x(87)#87 + 650 x(88)#88 + 509 x(89)#89 + 331 x(90)#90
      + 458 x(91)#91 + 129 x(92)#92 + 32 x(93)#93 + 71 x(94)#94 + 385 x(95)#95
      + 183 x(96)#96 + 16 x(97)#97 + 430 x(98)#98 + 170 x(99)#99 <= 11586
 c9:  678 x(0)#0 + 708 x(1)#1 + 190 x(2)#2 + 489 x(3)#3 + 972 x(4)#4
      + 434 x(5)#5 + 114 x(6)#6 + 26 x(7)#7 + 866 x(8)#8 + 72 x(9)#9
      + 825 x(10)#10 + 621 x(11)#11 + 12 x(12)#12 + 994 x(13)#13 + 703 x(14)#14
      + 962 x(15)#15 + 270 x(16)#16 + 406 x(17)#17 + 230 x(18)#18
      + 828 x(19)#19 + 523 x(20)#20 + 409 x(21)#21 + 258 x(22)#22
      + 360 x(23)#23 + 189 x(24)#24 + 639 x(25)#25 + 487 x(26)#26
      + 441 x(27)#27 + 795 x(28)#28 + 53 x(29)#29 + 323 x(30)#30 + 458 x(31)#31
      + 405 x(32)#32 + 239 x(33)#33 + 235 x(34)#34 + 347 x(35)#35
      + 241 x(36)#36 + 432 x(37)#37 + 566 x(38)#38 + 968 x(39)#39
      + 611 x(40)#40 + 404 x(41)#41 + 916 x(42)#42 + 413 x(43)#43
      + 654 x(44)#44 + 703 x(45)#45 + 564 x(46)#46 + 593 x(47)#47
      + 509 x(48)#48 + 932 x(49)#49 + 704 x(50)#50 + 565 x(51)#51
      + 1000 x(52)#52 + 653 x(53)#53 + 785 x(54)#54 + 611 x(55)#55
      + 352 x(56)#56 + 822 x(57)#57 + 330 x(58)#58 + 559 x(59)#59
      + 713 x(60)#60 + 560 x(61)#61 + 486 x(62)#62 + 582 x(63)#63 + 10 x(64)#64
      + 414 x(65)#65 + 728 x(66)#66 + 793 x(67)#67 + 597 x(68)#68
      + 977 x(69)#69 + 894 x(70)#70 + 432 x(71)#71 + 391 x(72)#72
      + 804 x(73)#73 + 525 x(74)#74 + 494 x(75)#75 + 702 x(76)#76
      + 175 x(77)#77 + 523 x(78)#78 + 664 x(79)#79 + 854 x(80)#80 + 20 x(81)#81
      + 495 x(82)#82 + 805 x(83)#83 + 802 x(84)#84 + 730 x(85)#85 + 88 x(86)#86
      + 629 x(87)#87 + 290 x(88)#88 + 317 x(89)#89 + 928 x(90)#90
      + 937 x(91)#91 + 465 x(92)#92 + 10 x(93)#93 + 471 x(94)#94 + 702 x(95)#95
      + 796 x(96)#96 + 627 x(97)#97 + 894 x(98)#98 + 209 x(99)#99 <= 13495
 c10: 418 x(0)#0 + 336 x(1)#1 + 138 x(2)#2 + 361 x(3)#3 + 950 x(4)#4
      + 359 x(5)#5 + 885 x(6)#6 + 239 x(7)#7 + 261 x(8)#8 + 273 x(9)#9
      + 611 x(10)#10 + 551 x(11)#11 + 759 x(12)#12 + 28 x(13)#13 + 650 x(14)#14
      + 420 x(15)#15 + 800 x(16)#16 + 912 x(17)#17 + 839 x(18)#18
      + 188 x(19)#19 + 588 x(20)#20 + 795 x(21)#21 + 184 x(22)#22
      + 592 x(23)#23 + 500 x(24)#24 + 890 x(25)#25 + 629 x(26)#26
      + 570 x(27)#27 + 443 x(28)#28 + 902 x(29)#29 + 837 x(30)#30
      + 492 x(31)#31 + 839 x(32)#32 + 786 x(33)#33 + 602 x(34)#34
      + 365 x(35)#35 + 872 x(36)#36 + 558 x(37)#37 + 107 x(38)#38
      + 466 x(39)#39 + 890 x(40)#40 + 645 x(41)#41 + 198 x(42)#42
      + 686 x(43)#43 + 58 x(44)#44 + 183 x(45)#45 + 866 x(46)#46 + 561 x(47)#47
      + 322 x(48)#48 + 254 x(49)#49 + 437 x(50)#50 + 890 x(51)#51
      + 596 x(52)#52 + 560 x(53)#53 + 419 x(54)#54 + 212 x(55)#55 + 25 x(56)#56
      + 777 x(57)#57 + 505 x(58)#58 + 834 x(59)#59 + 167 x(60)#60
      + 198 x(61)#61 + 308 x(62)#62 + 978 x(63)#63 + 380 x(64)#64
      + 161 x(65)#65 + 317 x(66)#66 + 570 x(67)#67 + 813 x(68)#68 + 56 x(69)#69
      + 953 x(70)#70 + 270 x(71)#71 + 605 x(72)#72 + 956 x(73)#73 + 73 x(74)#74
      + 92 x(75)#75 + 886 x(76)#76 + 642 x(77)#77 + 183 x(78)#78 + 286 x(79)#79
      + 384 x(80)#80 + 364 x(81)#81 + 83 x(82)#82 + 229 x(83)#83 + 508 x(84)#84
      + 621 x(85)#85 + 64 x(86)#86 + 229 x(87)#87 + 96 x(88)#88 + 190 x(89)#89
      + 979 x(90)#90 + 661 x(91)#91 + 24 x(92)#92 + 411 x(93)#93 + 940 x(94)#94
      + 515 x(95)#95 + 89 x(96)#96 + 77 x(97)#97 + 348 x(98)#98 + 538 x(99)#99
      <= 12039
Bounds
 0 <= x(0)#0 <= 1
 0 <= x(1)#1 <= 1
 0 <= x(2)#2 <= 1
 0 <= x(3)#3 <= 1
 0 <= x(4)#4 <= 1
 0 <= x(5)#5 <= 1
 0 <= x(6)#6 <= 1
 0 <= x(7)#7 <= 1
 0 <= x(8)#8 <= 1
 0 <= x(9)#9 <= 1
 0 <= x(10)#10 <= 1
 0 <= x(11)#11 <= 1
 0 <= x(12)#12 <= 1
 0 <= x(13)#13 <= 1
 0 <= x(14)#14 <= 1
 0 <= x(15)#15 <= 1
 0 <= x(16)#16 <= 1
 0 <= x(17)#17 <= 1
 0 <= x(18)#18 <= 1
 0 <= x(19)#19 <= 1
 0 <= x(20)#20 <= 1
 0 <= x(21)#21 <= 1
 0 <= x(22)#22 <= 1
 0 <= x(23)#23 <= 1
 0 <= x(24)#24 <= 1
 0 <= x(25)#25 <= 1
 0 <= x(26)#26 <= 1
 0 <= x(27)#27 <= 1
 0 <= x(28)#28 <= 1
 0 <= x(29)#29 <= 1
 0 <= x(30)#30 <= 1
 0 <= x(31)#31 <= 1
 0 <= x(32)#32 <= 1
 0 <= x(33)#33 <= 1
 0 <= x(34)#34 <= 1
 0 <= x(35)#35 <= 1
 0 <= x(36)#36 <= 1
 0 <= x(37)#37 <= 1
 0 <= x(38)#38 <= 1
 0 <= x(39)#39 <= 1
 0 <= x(40)#40 <= 1
 0 <= x(41)#41 <= 1
 0 <= x(42)#42 <= 1
 0 <= x(43)#43 <= 1
 0 <= x(44)#44 <= 1
 0 <= x(45)#45 <= 1
 0 <= x(46)#46 <= 1
 0 <= x(47)#47 <= 1
 0 <= x(48)#48 <= 1
 0 <= x(49)#49 <= 1
 0 <= x(50)#50 <= 1
 0 <= x(51)#51 <= 1
 0 <= x(52)#52 <= 1
 0 <= x(53)#53 <= 1
 0 <= x(54)#54 <= 1
 0 <= x(55)#55 <= 1
 0 <= x(56)#56 <= 1
 0 <= x(57)#57 <= 1
 0 <= x(58)#58 <= 1
 0 <= x(59)#59 <= 1
 0 <= x(60)#60 <= 1
 0 <= x(61)#61 <= 1
 0 <= x(62)#62 <= 1
 0 <= x(63)#63 <= 1
 0 <= x(64)#64 <= 1
 0 <= x(65)#65 <= 1
 0 <= x(66)#66 <= 1
 0 <= x(67)#67 <= 1
 0 <= x(68)#68 <= 1
 0 <= x(69)#69 <= 1
 0 <= x(70)#70 <= 1
 0 <= x(71)#71 <= 1
 0 <= x(72)#72 <= 1
 0 <= x(73)#73 <= 1
 0 <= x(74)#74 <= 1
 0 <= x(75)#75 <= 1
 0 <= x(76)#76 <= 1
 0 <= x(77)#77 <= 1
 0 <= x(78)#78 <= 1
 0 <= x(79)#79 <= 1
 0 <= x(80)#80 <= 1
 0 <= x(81)#81 <= 1
 0 <= x(82)#82 <= 1
 0 <= x(83)#83 <= 1
 0 <= x(84)#84 <= 1
 0 <= x(85)#85 <= 1
 0 <= x(86)#86 <= 1
 0 <= x(87)#87 <= 1
 0 <= x(88)#88 <= 1
 0 <= x(89)#89 <= 1
 0 <= x(90)#90 <= 1
 0 <= x(91)#91 <= 1
 0 <= x(92)#92 <= 1
 0 <= x(93)#93 <= 1
 0 <= x(94)#94 <= 1
 0 <= x(95)#95 <= 1
 0 <= x(96)#96 <= 1
 0 <= x(97)#97 <= 1
 0 <= x(98)#98 <= 1
 0 <= x(99)#99 <= 1
Generals
 x(0)#0  x(1)#1  x(2)#2  x(3)#3  x(4)#4  x(5)#5  x(6)#6  x(7)#7  x(8)#8 
 x(9)#9  x(10)#10  x(11)#11  x(12)#12  x(13)#13  x(14)#14  x(15)#15  x(16)#16 
 x(17)#17  x(18)#18  x(19)#19  x(20)#20  x(21)#21  x(22)#22  x(23)#23 
 x(24)#24  x(25)#25  x(26)#26  x(27)#27  x(28)#28  x(29)#29  x(30)#30 
 x(31)#31  x(32)#32  x(33)#33  x(34)#34  x(35)#35  x(36)#36  x(37)#37 
 x(38)#38  x(39)#39  x(40)#40  x(41)#41  x(42)#42  x(43)#43  x(44)#44 
 x(45)#45  x(46)#46  x(47)#47  x(48)#48  x(49)#49  x(50)#50  x(51)#51 
 x(52)#52  x(53)#53  x(54)#54  x(55)#55  x(56)#56  x(57)#57  x(58)#58 
 x(59)#59  x(60)#60  x(61)#61  x(62)#62  x(63)#63  x(64)#64  x(65)#65 
 x(66)#66  x(67)#67  x(68)#68  x(69)#69  x(70)#70  x(71)#71  x(72)#72 
 x(73)#73  x(74)#74  x(75)#75  x(76)#76  x(77)#77  x(78)#78  x(79)#79 
 x(80)#80  x(81)#81  x(82)#82  x(83)#83  x(84)#84  x(85)#85  x(86)#86 
 x(87)#87  x(88)#88  x(89)#89  x(90)#90  x(91)#91  x(92)#92  x(93)#93 
 x(94)#94  x(95)#95  x(96)#96  x(97)#97  x(98)#98  x(99)#99 
End
